p cnf 10 25
2 1 -9 0
-3 -4 -7 0
3 9 -4 0
6 -10 5 0
-5 -5 -4 0
9 5 -7 0
8 8 9 0
7 -4 8 0
-3 6 -6 0
-2 2 -9 0
-3 -6 -4 0
7 10 6 0
7 -2 1 0
-5 -3 -5 0
-9 9 5 0
2 -4 9 0
2 -5 -7 0
-10 8 -3 0
5 1 -10 0
3 4 1 0
-6 -1 2 0
6 -3 3 0
7 -6 -4 0
3 7 -7 0
10 -7 8 0
